unsat
(define-fun inv ((s (_ BitVec 4)) (t (_ BitVec 4))) (_ BitVec 4) (bvnot t))
0.17user 0.01system 0:00.18elapsed 99%CPU (0avgtext+0avgdata 27892maxresident)k
0inputs+8outputs (0major+1555minor)pagefaults 0swaps
